0 5246.31
1 5204.20
2 5204.20
3 5204.20
4 5204.20
5 5185.71
6 5185.71
7 5185.71
8 5154.53
9 5154.53
10 5154.53
11 5154.53
12 5154.53
13 5154.53
14 5136.34
15 5136.34
16 5136.34
17 5136.34
18 5136.34
19 5136.34
20 5136.34
21 5128.96
22 5125.00
23 5112.18
24 5112.18
25 5099.97
26 5099.97
27 5099.97
28 5086.97
29 5086.97
30 5080.27
31 5080.27
32 5080.27
33 5080.27
34 5059.11
35 5059.11
36 5059.11
37 5059.11
38 5059.11
39 5059.11
40 5059.11
41 5059.11
42 5059.11
43 5059.11
44 5059.11
45 5059.11
46 5059.11
47 5059.11
48 5059.11
49 5059.11
50 5059.11
51 5059.11
52 5059.11
53 5059.11
54 5059.11
55 5059.11
56 5044.56
57 5044.56
58 5044.56
59 5041.66
60 5041.66
61 5041.66
62 5041.66
63 5041.66
64 5041.66
65 5041.66
66 5041.66
67 5041.66
68 5041.66
69 5041.66
70 5041.66
71 5041.66
72 5041.66
73 5041.66
74 5039.16
75 5039.16
76 5039.16
77 5039.16
78 5039.16
79 5039.16
80 5037.86
81 5037.86
82 5037.86
83 5037.86
84 5037.86
85 5037.86
86 5037.86
87 5037.86
88 5032.36
89 5032.36
90 5032.36
91 5032.36
92 5032.36
93 5032.36
94 5032.36
95 5032.36
96 5032.36
97 5029.08
98 5029.08
99 5029.08
100 5029.08
101 5029.08
102 5029.08
103 5029.08
104 5029.08
105 5029.08
106 5029.08
107 5029.08
108 5029.08
109 5029.08
110 5029.08
111 5029.08
112 5029.08
113 5029.08
114 5028.45
115 5028.45
116 5028.45
117 5028.45
118 5028.45
119 5028.45
120 5028.45
121 5028.45
122 5028.45
123 5028.45
124 5028.45
125 5028.45
126 5028.45
127 5028.45
128 5028.45
129 5028.45
130 5028.45
131 5028.45
132 5028.45
133 5028.45
134 5028.45
135 5028.45
136 5028.45
137 5028.45
138 5028.45
139 5028.45
140 5028.45
141 5028.45
142 5017.94
143 5017.94
144 5017.94
145 5015.38
146 5015.38
147 5015.38
148 5015.38
149 5015.38
150 5015.38
151 5015.38
152 5015.38
153 5015.38
154 5015.38
155 5015.38
156 5015.38
157 5015.38
158 5015.38
159 5015.38
160 5015.28
161 5015.28
162 5015.28
163 5015.28
164 5015.28
165 5015.28
166 5015.28
167 5015.28
168 5015.28
169 5015.28
170 5015.28
171 5015.28
172 5015.28
173 5015.28
174 5015.28
175 5015.28
176 5015.28
177 5013.77
178 5013.77
179 5013.77
180 5013.77
181 5013.77
182 5013.77
183 5013.77
184 5013.77
185 5013.77
186 5013.77
187 5013.77
188 5013.77
189 5013.77
190 5013.77
191 5013.77
192 5013.77
193 5013.77
194 5013.77
195 5013.77
196 5013.77
197 5013.77
198 5013.77
199 5013.77
200 5013.77
201 5013.77
202 5013.77
203 5013.77
204 5013.77
205 5013.77
206 5013.77
207 5013.77
208 5013.77
209 5013.77
210 5013.77
211 5013.77
212 5013.77
213 5013.77
214 5013.77
215 5013.77
216 5013.77
217 5013.77
218 5013.77
219 5013.77
220 5013.77
221 5013.77
222 5013.77
223 5013.77
224 5013.77
225 5013.77
226 5013.77
227 5013.77
228 5013.77
229 5013.77
230 5013.77
231 5013.77
232 5013.77
233 5013.77
234 5013.77
235 5013.77
236 5013.77
237 5013.77
238 5013.77
239 5013.77
240 5013.77
241 5013.77
242 5013.77
243 5013.77
244 5013.77
245 5013.77
246 5013.77
247 5013.77
248 5013.77
249 5013.77
250 5013.77
251 5013.77
252 5013.77
253 5013.77
254 5013.77
255 5013.77
256 5013.77
257 5013.77
258 5013.77
259 5013.73
260 5013.73
261 5013.73
262 5013.73
263 5013.73
264 5013.73
265 5013.73
266 5013.73
267 5013.73
268 5013.73
269 5013.73
270 5013.73
271 5013.73
272 5013.73
273 5013.73
274 5013.73
275 5013.73
276 5013.73
277 5013.73
278 5013.73
279 5013.73
280 5013.73
281 5013.73
282 5013.73
283 5013.73
284 5013.73
285 5013.73
286 5013.73
287 5013.73
288 5013.73
289 5013.73
290 5013.73
291 5013.73
292 5013.73
293 5013.73
294 5013.73
295 5013.73
296 5013.73
297 5013.73
298 5013.73
299 5013.73
300 5013.73
301 5013.73
302 5013.73
303 5013.73
304 5013.73
305 5013.73
306 5013.73
307 5013.73
308 5013.73
309 5013.73
310 5013.73
311 5013.73
312 5013.73
313 5013.73
314 5013.73
315 5013.73
316 5013.73
317 5013.73
318 5013.73
319 5013.73
320 5013.73
321 5013.73
322 5013.73
323 5013.73
324 5013.73
325 5013.73
326 5013.73
327 5013.73
328 5013.73
329 5013.73
330 5013.73
331 5013.73
332 5013.73
333 5013.73
334 5013.73
335 5013.73
336 5013.73
337 5013.73
338 5013.73
339 5013.73
340 5013.73
341 5013.73
342 5013.73
343 5013.73
344 5013.73
345 5013.73
346 5013.73
347 5013.73
348 5013.73
349 5013.73
350 5013.73
351 5013.73
352 5013.73
353 5013.73
354 5013.73
355 5013.73
356 5013.73
357 5013.73
358 5012.46
359 5012.46
360 5012.46
361 5012.46
362 5012.46
363 5012.46
364 5012.46
365 5012.46
366 5012.46
367 5012.46
368 5012.46
369 5012.46
370 5012.46
371 5012.46
372 5012.46
373 5012.46
374 5012.46
375 5012.46
376 5012.46
377 5012.46
378 5012.46
379 5012.46
380 5012.46
381 5012.46
382 5012.46
383 5012.46
384 5012.46
385 5012.46
386 5012.46
387 5012.46
388 5012.46
389 5012.46
390 5012.46
391 5012.46
392 5012.46
393 5012.46
394 5012.46
395 5012.46
396 5012.46
397 5012.46
398 5012.46
399 5012.46
400 5012.46
401 5012.46
402 5012.46
403 5012.46
404 5012.46
405 5012.46
406 5012.46
407 5012.46
408 5012.46
409 5012.46
410 5012.46
411 5012.46
412 5012.46
413 5012.46
414 5012.46
415 5012.46
416 5012.46
417 5012.46
418 5012.46
419 5012.46
420 5012.46
421 5012.46
422 5012.46
423 5012.46
424 5012.46
425 5012.46
426 5012.46
427 5012.46
428 5012.46
429 5012.46
430 5012.46
431 5012.46
432 5012.46
433 5012.46
434 5012.46
435 5012.46
436 5012.46
437 5012.46
438 5012.46
439 5012.46
440 5012.46
441 5012.46
442 5012.46
443 5012.46
444 5012.46
445 5012.46
446 5012.46
447 5012.46
448 5012.46
449 5012.46
450 5012.46
451 5012.46
452 5012.46
453 5012.46
454 5012.46
455 5012.46
456 5012.46
457 5012.46
458 5012.46
459 5012.46
460 5012.46
461 5012.46
462 5012.46
463 5012.46
464 5012.46
465 5012.46
466 5012.46
467 5012.46
468 5012.46
469 5012.46
470 5012.46
471 5012.46
472 5012.46
473 5012.46
474 5012.46
475 5012.46
476 5012.46
477 5012.46
478 5012.46
479 5012.46
480 5012.46
481 5012.46
482 5012.46
483 5012.46
484 5012.46
485 5012.46
486 5012.46
487 5012.46
488 5012.46
489 5012.46
490 5012.46
491 5012.46
492 5012.46
493 5012.46
494 5012.46
495 5012.46
496 5012.46
497 5012.46
498 5012.46
499 5012.46
4 9 8 2 0 0 